<?xml version="1.0" encoding="UTF-8"?><osil xmlns="os.optimizationservices.org"   xmlns:xsi="http://www.w3.org/2001/XMLSchema-instance" xsi:schemaLocation="os.optimizationservices.org http://www.optimizationservices.org/schemas/2.0/OSiL.xsd" ><instanceHeader><name>q_30_0_25_5</name></instanceHeader><instanceData><variables numberOfVariables="30"><var name="x1" ub="1"/><var name="x2" ub="1"/><var name="x3" ub="1"/><var name="x4" ub="1"/><var name="x5" ub="1"/><var name="x6" ub="1"/><var name="x7" ub="1"/><var name="x8" ub="1"/><var name="x9" ub="1"/><var name="x10" ub="1"/><var name="x11" ub="1"/><var name="x12" ub="1"/><var name="x13" ub="1"/><var name="x14" ub="1"/><var name="x15" ub="1"/><var name="x16" ub="1"/><var name="x17" ub="1"/><var name="x18" ub="1"/><var name="x19" ub="1"/><var name="x20" ub="1"/><var name="x21" ub="1"/><var name="x22" ub="1"/><var name="x23" ub="1"/><var name="x24" ub="1"/><var name="x25" ub="1"/><var name="x26" ub="1"/><var name="x27" ub="1"/><var name="x28" ub="1"/><var name="x29" ub="1"/><var name="x30" ub="1"/></variables><objectives numberOfObjectives="1"><obj maxOrMin="min" name="defObj_x31" numberOfObjCoef="30"><coef idx="0">-.2458</coef><coef idx="1">.6472</coef><coef idx="2">-.3359</coef><coef idx="3">-.863</coef><coef idx="4">.1233</coef><coef idx="5">.6612</coef><coef idx="6">.2013</coef><coef idx="7">.6938</coef><coef idx="8">-.7642</coef><coef idx="9">.3951</coef><coef idx="10">-.3524</coef><coef idx="11">-.9741</coef><coef idx="12">.6833</coef><coef idx="13">-.4752</coef><coef idx="14">-.3353</coef><coef idx="15">.9698</coef><coef idx="16">-.9741</coef><coef idx="17">-.1607</coef><coef idx="18">.7583</coef><coef idx="19">.803</coef><coef idx="20">-.4884</coef><coef idx="21">.459</coef><coef idx="22">.7593</coef><coef idx="23">.3966</coef><coef idx="24">.2922</coef><coef idx="25">-.8999</coef><coef idx="26">-.3177</coef><coef idx="27">.2054</coef><coef idx="28">-7.02e-2</coef><coef idx="29">-.1661</coef></obj></objectives><quadraticCoefficients  numberOfQuadraticTerms="116" ><qTerm  idx="-1"  idxOne="0"  idxTwo="1"  coef=".7726"/><qTerm  idx="-1"  idxOne="0"  idxTwo="10"  coef=".3701"/><qTerm  idx="-1"  idxOne="0"  idxTwo="15"  coef="-.6992"/><qTerm  idx="-1"  idxOne="0"  idxTwo="22"  coef="-.5283"/><qTerm  idx="-1"  idxOne="0"  idxTwo="27"  coef="1.0054"/><qTerm  idx="-1"  idxOne="1"  idxTwo="1"  coef="-.9102"/><qTerm  idx="-1"  idxOne="1"  idxTwo="3"  coef=".3328"/><qTerm  idx="-1"  idxOne="1"  idxTwo="8"  coef="1.0756"/><qTerm  idx="-1"  idxOne="1"  idxTwo="13"  coef="-2.97e-2"/><qTerm  idx="-1"  idxOne="1"  idxTwo="18"  coef=".9367"/><qTerm  idx="-1"  idxOne="1"  idxTwo="21"  coef="1.369"/><qTerm  idx="-1"  idxOne="1"  idxTwo="22"  coef="1.9673"/><qTerm  idx="-1"  idxOne="2"  idxTwo="6"  coef="-.7951"/><qTerm  idx="-1"  idxOne="2"  idxTwo="9"  coef=".8503"/><qTerm  idx="-1"  idxOne="2"  idxTwo="10"  coef="-1.6394"/><qTerm  idx="-1"  idxOne="2"  idxTwo="12"  coef=".4191"/><qTerm  idx="-1"  idxOne="2"  idxTwo="20"  coef="1.5268"/><qTerm  idx="-1"  idxOne="2"  idxTwo="21"  coef="-.8012"/><qTerm  idx="-1"  idxOne="2"  idxTwo="24"  coef="-1.6967"/><qTerm  idx="-1"  idxOne="3"  idxTwo="5"  coef="-.5142"/><qTerm  idx="-1"  idxOne="3"  idxTwo="9"  coef=".9478"/><qTerm  idx="-1"  idxOne="3"  idxTwo="10"  coef="-1.3249"/><qTerm  idx="-1"  idxOne="3"  idxTwo="17"  coef="-1.4854"/><qTerm  idx="-1"  idxOne="3"  idxTwo="21"  coef="-1.7157"/><qTerm  idx="-1"  idxOne="3"  idxTwo="27"  coef=".9426"/><qTerm  idx="-1"  idxOne="4"  idxTwo="15"  coef="-.4773"/><qTerm  idx="-1"  idxOne="4"  idxTwo="20"  coef="-1.3846"/><qTerm  idx="-1"  idxOne="4"  idxTwo="22"  coef="-1.3438"/><qTerm  idx="-1"  idxOne="4"  idxTwo="26"  coef=".1465"/><qTerm  idx="-1"  idxOne="4"  idxTwo="27"  coef="1.7676"/><qTerm  idx="-1"  idxOne="5"  idxTwo="9"  coef="-1.5505"/><qTerm  idx="-1"  idxOne="5"  idxTwo="12"  coef="1.5693"/><qTerm  idx="-1"  idxOne="5"  idxTwo="17"  coef="-.5358"/><qTerm  idx="-1"  idxOne="5"  idxTwo="18"  coef="-1.0262"/><qTerm  idx="-1"  idxOne="5"  idxTwo="22"  coef=".411"/><qTerm  idx="-1"  idxOne="5"  idxTwo="24"  coef="1.3168"/><qTerm  idx="-1"  idxOne="5"  idxTwo="25"  coef="1.4166"/><qTerm  idx="-1"  idxOne="5"  idxTwo="26"  coef="1.2787"/><qTerm  idx="-1"  idxOne="6"  idxTwo="12"  coef="1.2849"/><qTerm  idx="-1"  idxOne="6"  idxTwo="14"  coef="-.3986"/><qTerm  idx="-1"  idxOne="6"  idxTwo="15"  coef="1.3806"/><qTerm  idx="-1"  idxOne="6"  idxTwo="17"  coef="1.2333"/><qTerm  idx="-1"  idxOne="6"  idxTwo="23"  coef="1.0089"/><qTerm  idx="-1"  idxOne="7"  idxTwo="7"  coef="1.5723"/><qTerm  idx="-1"  idxOne="7"  idxTwo="8"  coef=".6123"/><qTerm  idx="-1"  idxOne="7"  idxTwo="13"  coef=".8783"/><qTerm  idx="-1"  idxOne="7"  idxTwo="18"  coef=".5028"/><qTerm  idx="-1"  idxOne="7"  idxTwo="22"  coef=".3186"/><qTerm  idx="-1"  idxOne="7"  idxTwo="26"  coef="-1.6975"/><qTerm  idx="-1"  idxOne="7"  idxTwo="28"  coef="1.9218"/><qTerm  idx="-1"  idxOne="8"  idxTwo="16"  coef="-2.54e-2"/><qTerm  idx="-1"  idxOne="8"  idxTwo="22"  coef="-1.0931"/><qTerm  idx="-1"  idxOne="8"  idxTwo="26"  coef=".2765"/><qTerm  idx="-1"  idxOne="8"  idxTwo="29"  coef="-.1025"/><qTerm  idx="-1"  idxOne="9"  idxTwo="10"  coef="-4.89e-2"/><qTerm  idx="-1"  idxOne="9"  idxTwo="13"  coef="-.1172"/><qTerm  idx="-1"  idxOne="9"  idxTwo="18"  coef="-.4132"/><qTerm  idx="-1"  idxOne="9"  idxTwo="23"  coef="-1.0515"/><qTerm  idx="-1"  idxOne="9"  idxTwo="24"  coef="-.7638"/><qTerm  idx="-1"  idxOne="9"  idxTwo="28"  coef="-.561"/><qTerm  idx="-1"  idxOne="10"  idxTwo="10"  coef="-1.6695"/><qTerm  idx="-1"  idxOne="10"  idxTwo="14"  coef="1.9159"/><qTerm  idx="-1"  idxOne="10"  idxTwo="16"  coef="1.2256"/><qTerm  idx="-1"  idxOne="10"  idxTwo="22"  coef=".6688"/><qTerm  idx="-1"  idxOne="10"  idxTwo="24"  coef="1.09e-2"/><qTerm  idx="-1"  idxOne="10"  idxTwo="27"  coef="1.7754"/><qTerm  idx="-1"  idxOne="10"  idxTwo="28"  coef="-.8254"/><qTerm  idx="-1"  idxOne="11"  idxTwo="12"  coef=".5044"/><qTerm  idx="-1"  idxOne="11"  idxTwo="19"  coef="1.5223"/><qTerm  idx="-1"  idxOne="11"  idxTwo="20"  coef="-.9697"/><qTerm  idx="-1"  idxOne="11"  idxTwo="21"  coef=".9239"/><qTerm  idx="-1"  idxOne="11"  idxTwo="24"  coef="-.9546"/><qTerm  idx="-1"  idxOne="11"  idxTwo="27"  coef="-.3935"/><qTerm  idx="-1"  idxOne="11"  idxTwo="28"  coef="-1.8189"/><qTerm  idx="-1"  idxOne="12"  idxTwo="13"  coef="-1.5988"/><qTerm  idx="-1"  idxOne="12"  idxTwo="14"  coef="-1.1983"/><qTerm  idx="-1"  idxOne="12"  idxTwo="15"  coef=".3588"/><qTerm  idx="-1"  idxOne="12"  idxTwo="22"  coef=".3559"/><qTerm  idx="-1"  idxOne="12"  idxTwo="23"  coef=".1906"/><qTerm  idx="-1"  idxOne="12"  idxTwo="28"  coef="1.1892"/><qTerm  idx="-1"  idxOne="13"  idxTwo="14"  coef=".9628"/><qTerm  idx="-1"  idxOne="13"  idxTwo="22"  coef="-2.68e-2"/><qTerm  idx="-1"  idxOne="13"  idxTwo="26"  coef="1.2933"/><qTerm  idx="-1"  idxOne="13"  idxTwo="27"  coef="-.8282"/><qTerm  idx="-1"  idxOne="14"  idxTwo="17"  coef="-1.2026"/><qTerm  idx="-1"  idxOne="14"  idxTwo="23"  coef="-1.8265"/><qTerm  idx="-1"  idxOne="14"  idxTwo="26"  coef="-.2621"/><qTerm  idx="-1"  idxOne="14"  idxTwo="27"  coef="-.1428"/><qTerm  idx="-1"  idxOne="15"  idxTwo="15"  coef=".6111"/><qTerm  idx="-1"  idxOne="15"  idxTwo="17"  coef="-.7874"/><qTerm  idx="-1"  idxOne="15"  idxTwo="23"  coef=".9898"/><qTerm  idx="-1"  idxOne="15"  idxTwo="26"  coef="-1.1937"/><qTerm  idx="-1"  idxOne="15"  idxTwo="29"  coef=".9541"/><qTerm  idx="-1"  idxOne="16"  idxTwo="17"  coef="-.6333"/><qTerm  idx="-1"  idxOne="16"  idxTwo="26"  coef="-.8073"/><qTerm  idx="-1"  idxOne="17"  idxTwo="19"  coef="-.7881"/><qTerm  idx="-1"  idxOne="17"  idxTwo="21"  coef="1.0219"/><qTerm  idx="-1"  idxOne="17"  idxTwo="22"  coef="-1.6001"/><qTerm  idx="-1"  idxOne="17"  idxTwo="23"  coef="-1.8053"/><qTerm  idx="-1"  idxOne="17"  idxTwo="28"  coef="1.2285"/><qTerm  idx="-1"  idxOne="18"  idxTwo="22"  coef=".5862"/><qTerm  idx="-1"  idxOne="18"  idxTwo="27"  coef="-1.5294"/><qTerm  idx="-1"  idxOne="18"  idxTwo="29"  coef=".7342"/><qTerm  idx="-1"  idxOne="19"  idxTwo="21"  coef=".9705"/><qTerm  idx="-1"  idxOne="19"  idxTwo="24"  coef="1.7e-3"/><qTerm  idx="-1"  idxOne="20"  idxTwo="23"  coef="-1.6489"/><qTerm  idx="-1"  idxOne="20"  idxTwo="26"  coef=".5921"/><qTerm  idx="-1"  idxOne="20"  idxTwo="29"  coef="-.9223"/><qTerm  idx="-1"  idxOne="21"  idxTwo="24"  coef="1.7027"/><qTerm  idx="-1"  idxOne="21"  idxTwo="26"  coef="-.3962"/><qTerm  idx="-1"  idxOne="22"  idxTwo="25"  coef="-.1355"/><qTerm  idx="-1"  idxOne="22"  idxTwo="28"  coef=".6363"/><qTerm  idx="-1"  idxOne="23"  idxTwo="29"  coef="4.65e-2"/><qTerm  idx="-1"  idxOne="24"  idxTwo="26"  coef="1.2022"/><qTerm  idx="-1"  idxOne="27"  idxTwo="29"  coef=".6197"/><qTerm  idx="-1"  idxOne="28"  idxTwo="29"  coef="1.1985"/></quadraticCoefficients></instanceData></osil>
